(declare-const a1 (Array Int Int))
(declare-const a2 (Array Int Int))
(declare-const c1 (Array (Array Int Int) (Array (Array Int Int) (Array Int Int))))
(declare-const c2 (Array (Array Int Int) (Array (Array Int Int) (Array Int Int))))
(assert (and (= a1 a2) (= c1 c2)))
(check-sat)
(get-model)
(exit)